0
0
0
0
21
0
0
0
0
0
0
0
0
0
0
0
0
0
0
0
0
0
0
0
0
0
1 2 0
1 3 0
1 4 1
1 5 1
1 6 0
1 7 0
1 8 0
1 9 1
1 10 0
1 11 0
1 12 0
1 13 1
1 14 1
1 15 1
1 16 0
1 17 0
1 18 0
1 19 0
1 20 1
1 21 1
2 3 1
2 4 1
2 5 1
2 6 1
2 7 1
2 8 0
2 9 0
2 10 0
2 11 1
2 12 1
2 13 1
2 14 1
2 15 0
2 16 0
2 17 0
2 18 1
2 19 0
2 20 0
2 21 0
3 4 0
3 5 0
3 6 0
3 7 1
3 8 0
3 9 0
3 10 1
3 11 0
3 12 0
3 13 1
3 14 0
3 15 1
3 16 0
3 17 0
3 18 0
3 19 1
3 20 0
3 21 0
4 5 1
4 6 0
4 7 0
4 8 0
4 9 1
4 10 1
4 11 1
4 12 0
4 13 1
4 14 0
4 15 1
4 16 0
4 17 1
4 18 0
4 19 0
4 20 0
4 21 0
5 6 0
5 7 0
5 8 1
5 9 1
5 10 0
5 11 0
5 12 0
5 13 1
5 14 0
5 15 0
5 16 0
5 17 1
5 18 0
5 19 1
5 20 0
5 21 1
6 7 1
6 8 0
6 9 1
6 10 0
6 11 0
6 12 1
6 13 1
6 14 0
6 15 1
6 16 0
6 17 1
6 18 1
6 19 1
6 20 0
6 21 1
7 8 0
7 9 1
7 10 0
7 11 1
7 12 1
7 13 0
7 14 1
7 15 1
7 16 0
7 17 1
7 18 1
7 19 0
7 20 1
7 21 1
8 9 1
8 10 0
8 11 0
8 12 1
8 13 1
8 14 1
8 15 1
8 16 0
8 17 0
8 18 0
8 19 0
8 20 0
8 21 0
9 10 1
9 11 1
9 12 0
9 13 1
9 14 1
9 15 1
9 16 0
9 17 1
9 18 0
9 19 1
9 20 0
9 21 1
10 11 0
10 12 1
10 13 0
10 14 1
10 15 1
10 16 0
10 17 1
10 18 1
10 19 1
10 20 1
10 21 1
11 12 0
11 13 0
11 14 0
11 15 0
11 16 0
11 17 1
11 18 1
11 19 1
11 20 0
11 21 0
12 13 0
12 14 0
12 15 1
12 16 1
12 17 0
12 18 1
12 19 1
12 20 1
12 21 1
13 14 0
13 15 1
13 16 1
13 17 1
13 18 1
13 19 1
13 20 0
13 21 1
14 15 1
14 16 0
14 17 1
14 18 0
14 19 0
14 20 0
14 21 1
15 16 0
15 17 0
15 18 1
15 19 1
15 20 0
15 21 1
16 17 1
16 18 0
16 19 1
16 20 0
16 21 0
17 18 0
17 19 1
17 20 0
17 21 1
18 19 1
18 20 0
18 21 1
19 20 1
19 21 0
20 21 0
